



































































































51 13 53 56 58 4 
47 48 11 5 41 
60 16 66 76 63 57 
46 1 6 44 14 50 
65 72 73 38 55 
15 35 33 40 71 
67 12 30 74 26 
3 9 59 23 68 
49 29 45 61 7 
25 2 36 39 8 24 
21 64 28 10 32 
37 18 52 42 70 
43 69 54 75 27 20 
0 62 31 19 22 
34 17 
